circuit_heights=[3, 4, 5, 6, 7, 8, 9, 10, 11, 12, 14, 20, 3, 4, 6, 10, 11, 12, 3];
circuit_widths= [3, 3, 3, 3, 3, 3, 3, 3, 3, 3, 3, 3, 4, 4, 4, 4, 4, 4, 6];
max_height=158;
min_height=23;
n_circuits=19;
plate_width=23;
